100
300
50
0 0
88 40
30 51
7 26
97 69
60 63
17 26
70 33
21 61
95 95
49 41
88 39
31 86
80 96
54 50
75 31
61 68
63 55
61 19
25 81
3 60
80 46
99 70
65 56
32 67
88 19
47 25
20 100
47 48
56 51
38 26
48 52
70 43
55 39
56 73
86 34
67 46
62 81
61 60
85 0
35 34
14 26
56 60
86 29
7 69
26 21
62 88
53 85
36 84
80 47
95 19
0 0
50
50
70
30
60
60
70
70
30
60
40
50
50
70
70
70
60
40
60
30
50
40
60
60
60
50
50
70
30
60
60
70
70
30
60
40
50
50
70
70
70
60
40
60
30
50
40
60
60
60
